100
128
3
24
28
40
49
44
56
59
41
49
54
63
56
55
2
38
61
36
42
53
36
63
9
57
41
45
63
6
40
63
20
39
34
41
62
48
29
64
25
45
3
47
38
2
3
45
36
1
62
31
40
33
1
52
59
6
2
59
40
50
55
14
48
3
64
8
63
40
44
5
25
63
1
54
46
45
5
52
3
1
44
62
7
4
33
4
38
40
48
54
15
33
2
8
5
7
3
60
14
38